c CNF file corresponding to a (partial) station packing problem.
p cnf 1257 229
1 2 3 4 5 6 7 8 9 10 11 12 13 14 0
-1 -2 0
-1 -3 0
-1 -4 0
-1 -5 0
-1 -6 0
-1 -7 0
-1 -8 0
-1 -9 0
-1 -10 0
-1 -11 0
-1 -12 0
-1 -13 0
-1 -14 0
-2 -3 0
-2 -4 0
-2 -5 0
-2 -6 0
-2 -7 0
-2 -8 0
-2 -9 0
-2 -10 0
-2 -11 0
-2 -12 0
-2 -13 0
-2 -14 0
-3 -4 0
-3 -5 0
-3 -6 0
-3 -7 0
-3 -8 0
-3 -9 0
-3 -10 0
-3 -11 0
-3 -12 0
-3 -13 0
-3 -14 0
-4 -5 0
-4 -6 0
-4 -7 0
-4 -8 0
-4 -9 0
-4 -10 0
-4 -11 0
-4 -12 0
-4 -13 0
-4 -14 0
-5 -6 0
-5 -7 0
-5 -8 0
-5 -9 0
-5 -10 0
-5 -11 0
-5 -12 0
-5 -13 0
-5 -14 0
-6 -7 0
-6 -8 0
-6 -9 0
-6 -10 0
-6 -11 0
-6 -12 0
-6 -13 0
-6 -14 0
-7 -8 0
-7 -9 0
-7 -10 0
-7 -11 0
-7 -12 0
-7 -13 0
-7 -14 0
-8 -9 0
-8 -10 0
-8 -11 0
-8 -12 0
-8 -13 0
-8 -14 0
-9 -10 0
-9 -11 0
-9 -12 0
-9 -13 0
-9 -14 0
-10 -11 0
-10 -12 0
-10 -13 0
-10 -14 0
-11 -12 0
-11 -13 0
-11 -14 0
-12 -13 0
-12 -14 0
-13 -14 0
1241 1242 1243 1244 1245 1246 1247 1248 1249 1250 1251 1252 1253 1254 1255 1256 1257 0
-1241 -1242 0
-1241 -1243 0
-1241 -1244 0
-1241 -1245 0
-1241 -1246 0
-1241 -1247 0
-1241 -1248 0
-1241 -1249 0
-1241 -1250 0
-1241 -1251 0
-1241 -1252 0
-1241 -1253 0
-1241 -1254 0
-1241 -1255 0
-1241 -1256 0
-1241 -1257 0
-1242 -1243 0
-1242 -1244 0
-1242 -1245 0
-1242 -1246 0
-1242 -1247 0
-1242 -1248 0
-1242 -1249 0
-1242 -1250 0
-1242 -1251 0
-1242 -1252 0
-1242 -1253 0
-1242 -1254 0
-1242 -1255 0
-1242 -1256 0
-1242 -1257 0
-1243 -1244 0
-1243 -1245 0
-1243 -1246 0
-1243 -1247 0
-1243 -1248 0
-1243 -1249 0
-1243 -1250 0
-1243 -1251 0
-1243 -1252 0
-1243 -1253 0
-1243 -1254 0
-1243 -1255 0
-1243 -1256 0
-1243 -1257 0
-1244 -1245 0
-1244 -1246 0
-1244 -1247 0
-1244 -1248 0
-1244 -1249 0
-1244 -1250 0
-1244 -1251 0
-1244 -1252 0
-1244 -1253 0
-1244 -1254 0
-1244 -1255 0
-1244 -1256 0
-1244 -1257 0
-1245 -1246 0
-1245 -1247 0
-1245 -1248 0
-1245 -1249 0
-1245 -1250 0
-1245 -1251 0
-1245 -1252 0
-1245 -1253 0
-1245 -1254 0
-1245 -1255 0
-1245 -1256 0
-1245 -1257 0
-1246 -1247 0
-1246 -1248 0
-1246 -1249 0
-1246 -1250 0
-1246 -1251 0
-1246 -1252 0
-1246 -1253 0
-1246 -1254 0
-1246 -1255 0
-1246 -1256 0
-1246 -1257 0
-1247 -1248 0
-1247 -1249 0
-1247 -1250 0
-1247 -1251 0
-1247 -1252 0
-1247 -1253 0
-1247 -1254 0
-1247 -1255 0
-1247 -1256 0
-1247 -1257 0
-1248 -1249 0
-1248 -1250 0
-1248 -1251 0
-1248 -1252 0
-1248 -1253 0
-1248 -1254 0
-1248 -1255 0
-1248 -1256 0
-1248 -1257 0
-1249 -1250 0
-1249 -1251 0
-1249 -1252 0
-1249 -1253 0
-1249 -1254 0
-1249 -1255 0
-1249 -1256 0
-1249 -1257 0
-1250 -1251 0
-1250 -1252 0
-1250 -1253 0
-1250 -1254 0
-1250 -1255 0
-1250 -1256 0
-1250 -1257 0
-1251 -1252 0
-1251 -1253 0
-1251 -1254 0
-1251 -1255 0
-1251 -1256 0
-1251 -1257 0
-1252 -1253 0
-1252 -1254 0
-1252 -1255 0
-1252 -1256 0
-1252 -1257 0
-1253 -1254 0
-1253 -1255 0
-1253 -1256 0
-1253 -1257 0
-1254 -1255 0
-1254 -1256 0
-1254 -1257 0
-1255 -1256 0
-1255 -1257 0
-1256 -1257 0
